p cnf 10 25
1 2 3 0
-1 -2 -3 0
4 5 6 0
-4 -5 -6 0
7 8 9 0
-7 -8 -9 0
1 4 7 0
2 5 8 0
3 6 10 0
-1 5 9 0
-2 6 7 0
-3 4 8 0
1 -5 10 0
-4 8 2 0
7 -2 5 0
10 -3 -1 0
2 -8 4 0
6 -9 1 0
-7 3 5 0
8 -1 6 0
9 -4 2 0
5 7 -10 0
-6 1 3 0
-2 -9 8 0
4 -3 10 0
%
0